54
raw_data/rcpsp/CV.xlsx cv54
Time limit set to 60 seconds
Running CP solver
/home/omastto1/General-Optimization-Solver/src/solvers/rcpsp.py:31(stream:46:6): Warning: Cumulative expression 'pulse': height is zero, expression is zero everywhere.
                                                                                            VarCumulAtom_91 = pulse("0", 0)
/home/omastto1/General-Optimization-Solver/src/solvers/rcpsp.py:31(stream:46:429): Warning: Cumulative expression 'pulse': height is zero, expression is zero everywhere.
                                                                                              VarCumulAtom_118 = pulse("27", 0)
/home/omastto1/General-Optimization-Solver/src/solvers/rcpsp.py:31(stream:47:6): Warning: Cumulative expression 'pulse': height is zero, expression is zero everywhere.
                                                                                            VarCumulAtom_122 = pulse("0", 0)
/home/omastto1/General-Optimization-Solver/src/solvers/rcpsp.py:31(stream:47:441): Warning: Cumulative expression 'pulse': height is zero, expression is zero everywhere.
                                                                                              VarCumulAtom_149 = pulse("27", 0)
/home/omastto1/General-Optimization-Solver/src/solvers/rcpsp.py:31(stream:48:6): Warning: Cumulative expression 'pulse': height is zero, expression is zero everywhere.
                                                                                            VarCumulAtom_153 = pulse("0", 0)
/home/omastto1/General-Optimization-Solver/src/solvers/rcpsp.py:31(stream:48:429): Warning: Cumulative expression 'pulse': height is zero, expression is zero everywhere.
                                                                                              VarCumulAtom_180 = pulse("27", 0)
 ! --------------------------------------------------- CP Optimizer 20.1.0.0 --
 ! Minimization problem - 29 variables, 51 constraints
 ! TimeLimit            = 60
 ! Workers              = 14
 ! LogVerbosity         = Terse
 ! Initial process time : 0.00s (0.00s extraction + 0.00s propagation)
 !  . Log search space  : 154.5 (before), 154.5 (after)
 !  . Memory usage      : 616.0 kB (before), 616.0 kB (after)
 ! Using parallel search with 14 workers.
 ! ----------------------------------------------------------------------------
 !          Best Branches  Non-fixed    W       Branch decision
                        0         29                 -
 + New bound is 18
 ! Using iterative diving.
 ! Using temporal relaxation.
 *            76       59  1.07s        1      (gap is 76.32%)
 *            72      499  1.07s        1      (gap is 75.00%)
              72     3125          3    1   F        -
 + New bound is 59 (gap is 18.06%)
 ! Using failure-directed search.
 *            71     5802  1.07s        2      (gap is 16.90%)
 *            70    10034  1.07s        3      (gap is 15.71%)
 *            69     4965  1.07s        7      (gap is 14.49%)
 *            68    10730  1.07s       10      (gap is 13.24%)
 *            67     8616  2.11s        2      (gap is 11.94%)
 *            66    16820  3.16s        2      (gap is 10.61%)
 ! ----------------------------------------------------------------------------
 ! Search terminated by limit, 8 solutions found.
 ! Best objective         : 66 (gap is 10.61%)
 ! Best bound             : 59
 ! ----------------------------------------------------------------------------
 ! Number of branches     : 8528003
 ! Number of fails        : 2365837
 ! Total memory usage     : 9.6 MB (9.6 MB CP Optimizer + 0.1 MB Concert)
 ! Time spent in solve    : 60.05s (60.05s engine + 0.00s extraction)
 ! Search speed (br. / s) : 142038.7
 ! ----------------------------------------------------------------------------
(59,)
(0.106061,)
(66,)
Objective value: 66
Solution is 3.1 % worse than the lower bound.
Feasible solution found
